networks/zoo_96_1807/zoo_96_1807.txt
Number of groups: 47
Flow 3: {1 4} {4 52} 
Flow 8: {28 9} {9 57} 
Flow 11: {12 60} 
Flow 14: {17 16} {16 15} {15 63} 
Flow 40: {45 41} {41 42} {42 90} 
Flow 47: {2 1} {1 3} {3 51} 
Flow 107: {4 1} {1 5} {5 8} {8 56} 
Flow 119: {31 38} {38 21} {21 69} 
Flow 193: {6 28} {28 5} {5 53} 
Flow 210: {20 24} {24 36} {36 84} 
Flow 252: {8 5} {5 1} {1 40} {40 88} 
Flow 265: {9 28} {28 10} {10 58} 
Flow 298: {10 28} {28 6} {6 54} 
Flow 350: {11 12} {12 14} {14 25} {25 73} 
Flow 352: {14 17} {17 5} {5 27} {27 75} 
Flow 531: {16 17} {17 18} {18 19} {19 20} {20 68} 
Flow 535: {15 22} {22 26} {26 74} 
Flow 620: {34 32} {32 80} 
Flow 644: {18 17} {17 14} {14 12} {12 11} {11 59} 
Flow 691: {19 18} {18 66} 
Flow 708: {43 45} {45 46} {46 47} {47 39} {39 87} 
Flow 709: {36 23} {23 42} {42 41} {41 89} 
Flow 727: {5 17} {17 65} 
Flow 740: {21 38} {38 35} {35 83} 
Flow 747: {46 45} {45 93} 
Flow 890: {25 26} {26 22} {22 70} 
Flow 972: {27 5} {5 28} {28 34} {34 82} 
Flow 1056: {29 43} {43 30} {30 78} 
Flow 1109: {30 43} {43 44} {44 92} 
Flow 1154: {3 48} {48 46} {46 94} 
Flow 1163: {5 7} {7 55} 
Flow 1222: {26 43} {43 23} {23 71} 
Flow 1230: {33 32} {32 31} {31 79} 
Flow 1313: {38 31} {31 32} {32 34} {34 28} {28 76} 
Flow 1320: {35 38} {38 86} 
Flow 1377: {37 24} {24 72} 
Flow 1466: {39 47} {47 95} 
Flow 1468: {40 1} {1 2} {2 50} 
Flow 1504: {41 45} {45 43} {43 91} 
Flow 1530: {42 23} {23 43} {43 29} {29 77} 
Flow 1548: {13 48} {48 3} {3 1} {1 49} 
Flow 1604: {44 43} {43 26} {26 13} {13 61} 
Flow 1625: {23 36} {36 24} {24 37} {37 85} 
Flow 1651: {24 20} {20 19} {19 67} 
Flow 1693: {22 15} {15 16} {16 64} 
Flow 1761: {47 46} {46 48} {48 96} 
Flow 1775: {48 13} {13 26} {26 25} {25 14} {14 62} 
Time taken running everything: 54 seconds
