networks/zoo_96_1807/zoo_96_1807.sol
<?xml version = "1.0" encoding="UTF-8" standalone="yes"?>
<CPLEXSolution version="1.2">
 <header
   problemName="networks/zoo_96_1807/zoo_96_1807.lp"
   solutionName="incumbent"
   solutionIndex="-1"
   objectiveValue="47"
   solutionTypeValue="3"
   solutionTypeString="primal"
   solutionStatusValue="101"
   solutionStatusString="integer optimal solution"
   solutionMethodString="mip"
   primalFeasible="1"
   dualFeasible="1"
   MIPNodes="661"
   MIPIterations="63171"
   writeLevel="3"/>
 <quality
   epInt="1.0000000000000001e-05"
   epRHS="9.9999999999999995e-07"
   maxIntInfeas="0"
   maxPrimalInfeas="0"
   maxX="4"
   maxSlack="10"/>
 <variables>
  <variable name="Y(3,4)" index="193" value="1"/>
  <variable name="Y(8,9)" index="673" value="1"/>
  <variable name="Y(11,12)" index="961" value="1"/>
  <variable name="Y(14,15)" index="1249" value="1"/>
  <variable name="Y(40,42)" index="3746" value="1"/>
  <variable name="Y(47,3)" index="4372" value="1"/>
  <variable name="Y(107,8)" index="10077" value="1"/>
  <variable name="Y(119,21)" index="11230" value="1"/>
  <variable name="Y(193,5)" index="18244" value="1"/>
  <variable name="Y(210,36)" index="19890" value="1"/>
  <variable name="Y(252,40)" index="23884" value="1"/>
  <variable name="Y(265,10)" index="25089" value="1"/>
  <variable name="Y(298,6)" index="28220" value="1"/>
  <variable name="Y(350,25)" index="33179" value="1"/>
  <variable name="Y(352,27)" index="33371" value="1"/>
  <variable name="Y(531,20)" index="50369" value="1"/>
  <variable name="Y(535,26)" index="50755" value="1"/>
  <variable name="Y(620,32)" index="58836" value="1"/>
  <variable name="Y(644,11)" index="61095" value="1"/>
  <variable name="Y(691,18)" index="65567" value="1"/>
  <variable name="Y(708,39)" index="67203" value="1"/>
  <variable name="Y(709,41)" index="67300" value="1"/>
  <variable name="Y(727,17)" index="68986" value="1"/>
  <variable name="Y(740,35)" index="70239" value="1"/>
  <variable name="Y(747,45)" index="70914" value="1"/>
  <variable name="Y(890,22)" index="84476" value="1"/>
  <variable name="Y(972,34)" index="92278" value="1"/>
  <variable name="Y(1056,30)" index="100254" value="1"/>
  <variable name="Y(1109,44)" index="105303" value="1"/>
  <variable name="Y(1154,46)" index="109580" value="1"/>
  <variable name="Y(1163,7)" index="110396" value="1"/>
  <variable name="Y(1222,23)" index="116017" value="1"/>
  <variable name="Y(1230,31)" index="116785" value="1"/>
  <variable name="Y(1313,28)" index="124667" value="1"/>
  <variable name="Y(1320,38)" index="125342" value="1"/>
  <variable name="Y(1377,24)" index="130743" value="1"/>
  <variable name="Y(1466,47)" index="139221" value="1"/>
  <variable name="Y(1468,2)" index="139366" value="1"/>
  <variable name="Y(1504,43)" index="142827" value="1"/>
  <variable name="Y(1530,29)" index="145283" value="1"/>
  <variable name="Y(1548,1)" index="146965" value="1"/>
  <variable name="Y(1604,13)" index="152297" value="1"/>
  <variable name="Y(1625,37)" index="154316" value="1"/>
  <variable name="Y(1651,19)" index="156768" value="1"/>
  <variable name="Y(1693,16)" index="160755" value="1"/>
  <variable name="Y(1761,48)" index="167247" value="1"/>
  <variable name="Y(1775,14)" index="168543" value="1"/>
  <variable name="X(1,2,1468)" index="173132" value="1"/>
  <variable name="X(1,3,47)" index="173518" value="1"/>
  <variable name="X(1,4,3)" index="175281" value="1"/>
  <variable name="X(1,5,107)" index="177192" value="1"/>
  <variable name="X(1,40,252)" index="179144" value="1"/>
  <variable name="X(1,49,1548)" index="182247" value="1"/>
  <variable name="X(2,1,47)" index="182553" value="1"/>
  <variable name="X(2,50,1468)" index="185781" value="1"/>
  <variable name="X(3,1,1548)" index="187668" value="1"/>
  <variable name="X(3,48,1154)" index="189081" value="1"/>
  <variable name="X(3,51,47)" index="189781" value="1"/>
  <variable name="X(4,1,107)" index="191648" value="1"/>
  <variable name="X(4,52,3)" index="193351" value="1"/>
  <variable name="X(5,1,252)" index="195407" value="1"/>
  <variable name="X(5,7,1163)" index="198125" value="1"/>
  <variable name="X(5,8,107)" index="198876" value="1"/>
  <variable name="X(5,17,727)" index="201303" value="1"/>
  <variable name="X(5,27,352)" index="202735" value="1"/>
  <variable name="X(5,28,972)" index="205162" value="1"/>
  <variable name="X(5,53,193)" index="206190" value="1"/>
  <variable name="X(6,28,193)" index="207997" value="1"/>
  <variable name="X(6,54,298)" index="209909" value="1"/>
  <variable name="X(7,55,1163)" index="212581" value="1"/>
  <variable name="X(8,5,252)" index="213477" value="1"/>
  <variable name="X(8,56,107)" index="215139" value="1"/>
  <variable name="X(9,28,265)" index="217104" value="1"/>
  <variable name="X(9,57,8)" index="218654" value="1"/>
  <variable name="X(10,28,298)" index="220751" value="1"/>
  <variable name="X(10,58,265)" index="222525" value="1"/>
  <variable name="X(11,12,350)" index="224417" value="1"/>
  <variable name="X(11,59,644)" index="226518" value="1"/>
  <variable name="X(12,11,644)" index="228325" value="1"/>
  <variable name="X(12,14,350)" index="229838" value="1"/>
  <variable name="X(12,60,11)" index="231306" value="1"/>
  <variable name="X(13,26,1775)" index="234877" value="1"/>
  <variable name="X(13,48,1548)" index="236457" value="1"/>
  <variable name="X(13,61,1604)" index="238320" value="1"/>
  <variable name="X(14,12,644)" index="239167" value="1"/>
  <variable name="X(14,17,352)" index="240682" value="1"/>
  <variable name="X(14,25,350)" index="242487" value="1"/>
  <variable name="X(14,62,1775)" index="245719" value="1"/>
  <variable name="X(15,16,1693)" index="247444" value="1"/>
  <variable name="X(15,22,535)" index="248093" value="1"/>
  <variable name="X(15,63,14)" index="249379" value="1"/>
  <variable name="X(16,15,14)" index="251186" value="1"/>
  <variable name="X(16,17,531)" index="253510" value="1"/>
  <variable name="X(16,64,1693)" index="256479" value="1"/>
  <variable name="X(17,5,352)" index="256945" value="1"/>
  <variable name="X(17,14,644)" index="259044" value="1"/>
  <variable name="X(17,16,14)" index="260221" value="1"/>
  <variable name="X(17,18,531)" index="262545" value="1"/>
  <variable name="X(17,65,727)" index="264548" value="1"/>
  <variable name="X(18,17,644)" index="266272" value="1"/>
  <variable name="X(18,19,531)" index="267966" value="1"/>
  <variable name="X(18,66,691)" index="269933" value="1"/>
  <variable name="X(19,18,691)" index="271740" value="1"/>
  <variable name="X(19,20,531)" index="273387" value="1"/>
  <variable name="X(19,67,1651)" index="276314" value="1"/>
  <variable name="X(20,19,1651)" index="278121" value="1"/>
  <variable name="X(20,24,210)" index="278487" value="1"/>
  <variable name="X(20,68,531)" index="280615" value="1"/>
  <variable name="X(21,38,740)" index="282631" value="1"/>
  <variable name="X(21,69,119)" index="283817" value="1"/>
  <variable name="X(22,15,1693)" index="287198" value="1"/>
  <variable name="X(22,26,535)" index="287847" value="1"/>
  <variable name="X(22,70,890)" index="290009" value="1"/>
  <variable name="X(23,36,1625)" index="292551" value="1"/>
  <variable name="X(23,42,709)" index="293442" value="1"/>
  <variable name="X(23,43,1530)" index="296070" value="1"/>
  <variable name="X(23,71,1222)" index="297569" value="1"/>
  <variable name="X(24,20,1651)" index="299805" value="1"/>
  <variable name="X(24,36,210)" index="300171" value="1"/>
  <variable name="X(24,37,1625)" index="303393" value="1"/>
  <variable name="X(24,72,1377)" index="304952" value="1"/>
  <variable name="X(25,14,1775)" index="307157" value="1"/>
  <variable name="X(25,26,890)" index="308079" value="1"/>
  <variable name="X(25,73,350)" index="309346" value="1"/>
  <variable name="X(26,13,1604)" index="312407" value="1"/>
  <variable name="X(26,22,890)" index="313500" value="1"/>
  <variable name="X(26,25,1775)" index="316192" value="1"/>
  <variable name="X(26,43,1222)" index="317446" value="1"/>
  <variable name="X(26,74,535)" index="318566" value="1"/>
  <variable name="X(27,5,972)" index="320810" value="1"/>
  <variable name="X(27,75,352)" index="321997" value="1"/>
  <variable name="X(28,5,193)" index="323645" value="1"/>
  <variable name="X(28,6,298)" index="325557" value="1"/>
  <variable name="X(28,9,8)" index="327074" value="1"/>
  <variable name="X(28,10,265)" index="329138" value="1"/>
  <variable name="X(28,34,972)" index="331652" value="1"/>
  <variable name="X(28,76,1313)" index="333800" value="1"/>
  <variable name="X(29,43,1056)" index="335350" value="1"/>
  <variable name="X(29,77,1530)" index="337631" value="1"/>
  <variable name="X(30,43,1109)" index="339017" value="1"/>
  <variable name="X(30,78,1056)" index="340771" value="1"/>
  <variable name="X(31,32,1313)" index="342835" value="1"/>
  <variable name="X(31,38,119)" index="343448" value="1"/>
  <variable name="X(31,79,1230)" index="346366" value="1"/>
  <variable name="X(32,31,1230)" index="348173" value="1"/>
  <variable name="X(32,34,1313)" index="350063" value="1"/>
  <variable name="X(32,80,620)" index="351177" value="1"/>
  <variable name="X(33,32,1230)" index="353594" value="1"/>
  <variable name="X(34,28,1313)" index="355484" value="1"/>
  <variable name="X(34,32,620)" index="356598" value="1"/>
  <variable name="X(34,82,972)" index="358757" value="1"/>
  <variable name="X(35,38,1320)" index="360912" value="1"/>
  <variable name="X(35,83,740)" index="362139" value="1"/>
  <variable name="X(36,23,709)" index="363915" value="1"/>
  <variable name="X(36,24,1625)" index="366638" value="1"/>
  <variable name="X(36,84,210)" index="367030" value="1"/>
  <variable name="X(37,24,1377)" index="370004" value="1"/>
  <variable name="X(37,85,1625)" index="372059" value="1"/>
  <variable name="X(38,21,119)" index="372360" value="1"/>
  <variable name="X(38,31,1313)" index="375361" value="1"/>
  <variable name="X(38,35,740)" index="376595" value="1"/>
  <variable name="X(38,86,1320)" index="378982" value="1"/>
  <variable name="X(39,47,1466)" index="380935" value="1"/>
  <variable name="X(39,87,708)" index="381984" value="1"/>
  <variable name="X(40,1,1468)" index="384551" value="1"/>
  <variable name="X(40,88,252)" index="385142" value="1"/>
  <variable name="X(41,42,40)" index="386737" value="1"/>
  <variable name="X(41,45,1504)" index="390008" value="1"/>
  <variable name="X(41,89,709)" index="391020" value="1"/>
  <variable name="X(42,23,1530)" index="393648" value="1"/>
  <variable name="X(42,41,709)" index="394634" value="1"/>
  <variable name="X(42,90,40)" index="395772" value="1"/>
  <variable name="X(43,23,1222)" index="398761" value="1"/>
  <variable name="X(43,26,1604)" index="400950" value="1"/>
  <variable name="X(43,29,1530)" index="402683" value="1"/>
  <variable name="X(43,30,1056)" index="404016" value="1"/>
  <variable name="X(43,44,1109)" index="405876" value="1"/>
  <variable name="X(43,45,708)" index="407282" value="1"/>
  <variable name="X(43,91,1504)" index="409885" value="1"/>
  <variable name="X(44,43,1604)" index="411792" value="1"/>
  <variable name="X(44,92,1109)" index="413104" value="1"/>
  <variable name="X(45,41,40)" index="413842" value="1"/>
  <variable name="X(45,43,1504)" index="417113" value="1"/>
  <variable name="X(45,46,708)" index="418124" value="1"/>
  <variable name="X(45,93,747)" index="419970" value="1"/>
  <variable name="X(46,45,747)" index="421777" value="1"/>
  <variable name="X(46,47,708)" index="423545" value="1"/>
  <variable name="X(46,48,1761)" index="426405" value="1"/>
  <variable name="X(46,94,1154)" index="427605" value="1"/>
  <variable name="X(47,39,708)" index="428966" value="1"/>
  <variable name="X(47,46,1761)" index="431826" value="1"/>
  <variable name="X(47,95,1466)" index="433338" value="1"/>
  <variable name="X(48,3,1548)" index="435227" value="1"/>
  <variable name="X(48,13,1775)" index="437261" value="1"/>
  <variable name="X(48,46,1154)" index="438447" value="1"/>
  <variable name="X(48,96,1761)" index="440861" value="1"/>
  <variable name="C(3,4)" index="440913" value="1"/>
  <variable name="C(8,9)" index="440929" value="1"/>
  <variable name="C(14,16)" index="440956" value="1"/>
  <variable name="C(14,15)" index="440957" value="2"/>
  <variable name="C(40,41)" index="441103" value="1"/>
  <variable name="C(40,42)" index="441104" value="2"/>
  <variable name="C(47,1)" index="441136" value="1"/>
  <variable name="C(47,3)" index="441137" value="2"/>
  <variable name="C(107,1)" index="441478" value="1"/>
  <variable name="C(107,5)" index="441479" value="2"/>
  <variable name="C(107,8)" index="441480" value="3"/>
  <variable name="C(119,38)" index="441549" value="1"/>
  <variable name="C(119,21)" index="441550" value="2"/>
  <variable name="C(193,28)" index="441941" value="1"/>
  <variable name="C(193,5)" index="441942" value="2"/>
  <variable name="C(210,24)" index="442044" value="1"/>
  <variable name="C(210,36)" index="442045" value="2"/>
  <variable name="C(252,5)" index="442292" value="1"/>
  <variable name="C(252,1)" index="442293" value="2"/>
  <variable name="C(252,40)" index="442294" value="3"/>
  <variable name="C(265,28)" index="442369" value="1"/>
  <variable name="C(265,10)" index="442370" value="2"/>
  <variable name="C(298,28)" index="442579" value="1"/>
  <variable name="C(298,6)" index="442580" value="2"/>
  <variable name="C(350,12)" index="442914" value="1"/>
  <variable name="C(350,14)" index="442915" value="2"/>
  <variable name="C(350,25)" index="442916" value="3"/>
  <variable name="C(352,17)" index="442925" value="1"/>
  <variable name="C(352,5)" index="442926" value="2"/>
  <variable name="C(352,27)" index="442927" value="3"/>
  <variable name="C(531,17)" index="443945" value="1"/>
  <variable name="C(531,18)" index="443946" value="2"/>
  <variable name="C(531,19)" index="443947" value="3"/>
  <variable name="C(531,20)" index="443948" value="4"/>
  <variable name="C(535,22)" index="443969" value="1"/>
  <variable name="C(535,26)" index="443970" value="2"/>
  <variable name="C(620,32)" index="444398" value="1"/>
  <variable name="C(644,17)" index="444548" value="1"/>
  <variable name="C(644,14)" index="444549" value="2"/>
  <variable name="C(644,12)" index="444550" value="3"/>
  <variable name="C(644,11)" index="444551" value="4"/>
  <variable name="C(691,18)" index="444837" value="1"/>
  <variable name="C(708,45)" index="444945" value="1"/>
  <variable name="C(708,46)" index="444946" value="2"/>
  <variable name="C(708,47)" index="444947" value="3"/>
  <variable name="C(708,39)" index="444948" value="4"/>
  <variable name="C(709,23)" index="444952" value="1"/>
  <variable name="C(709,42)" index="444953" value="2"/>
  <variable name="C(709,41)" index="444954" value="3"/>
  <variable name="C(727,17)" index="445097" value="1"/>
  <variable name="C(740,38)" index="445213" value="1"/>
  <variable name="C(740,35)" index="445214" value="2"/>
  <variable name="C(747,45)" index="445293" value="1"/>
  <variable name="C(890,26)" index="446148" value="1"/>
  <variable name="C(890,22)" index="446149" value="2"/>
  <variable name="C(972,5)" index="446567" value="1"/>
  <variable name="C(972,28)" index="446568" value="2"/>
  <variable name="C(972,34)" index="446569" value="3"/>
  <variable name="C(1056,43)" index="447063" value="1"/>
  <variable name="C(1056,30)" index="447064" value="2"/>
  <variable name="C(1109,43)" index="447404" value="1"/>
  <variable name="C(1109,44)" index="447405" value="2"/>
  <variable name="C(1154,48)" index="447734" value="1"/>
  <variable name="C(1154,46)" index="447735" value="2"/>
  <variable name="C(1163,7)" index="447789" value="1"/>
  <variable name="C(1222,43)" index="448206" value="1"/>
  <variable name="C(1222,23)" index="448207" value="2"/>
  <variable name="C(1230,32)" index="448268" value="1"/>
  <variable name="C(1230,31)" index="448269" value="2"/>
  <variable name="C(1313,31)" index="448886" value="1"/>
  <variable name="C(1313,32)" index="448887" value="2"/>
  <variable name="C(1313,34)" index="448888" value="3"/>
  <variable name="C(1313,28)" index="448889" value="4"/>
  <variable name="C(1320,38)" index="448951" value="1"/>
  <variable name="C(1377,24)" index="449375" value="1"/>
  <variable name="C(1466,47)" index="450088" value="1"/>
  <variable name="C(1468,1)" index="450094" value="1"/>
  <variable name="C(1468,2)" index="450095" value="2"/>
  <variable name="C(1504,45)" index="450317" value="1"/>
  <variable name="C(1504,43)" index="450318" value="2"/>
  <variable name="C(1530,23)" index="450498" value="1"/>
  <variable name="C(1530,43)" index="450499" value="2"/>
  <variable name="C(1530,29)" index="450500" value="3"/>
  <variable name="C(1548,48)" index="450616" value="1"/>
  <variable name="C(1548,3)" index="450617" value="2"/>
  <variable name="C(1548,1)" index="450618" value="3"/>
  <variable name="C(1604,43)" index="450944" value="1"/>
  <variable name="C(1604,26)" index="450945" value="2"/>
  <variable name="C(1604,13)" index="450946" value="3"/>
  <variable name="C(1625,36)" index="451077" value="1"/>
  <variable name="C(1625,24)" index="451078" value="2"/>
  <variable name="C(1625,37)" index="451079" value="3"/>
  <variable name="C(1651,20)" index="451230" value="1"/>
  <variable name="C(1651,19)" index="451231" value="2"/>
  <variable name="C(1693,15)" index="451463" value="1"/>
  <variable name="C(1693,16)" index="451464" value="2"/>
  <variable name="C(1761,46)" index="451878" value="1"/>
  <variable name="C(1761,48)" index="451879" value="2"/>
  <variable name="C(1775,13)" index="451941" value="1"/>
  <variable name="C(1775,26)" index="451942" value="2"/>
  <variable name="C(1775,25)" index="451943" value="3"/>
  <variable name="C(1775,14)" index="451944" value="4"/>
 </variables>
</CPLEXSolution>
